tours/berlin52.tsp.txt
25 27 47 18 12 46 23 40 20 24 45 31 37 16 48 51 52 19 3 4 21 13 43 49 39 2 29 17 7 9 30 11 26 50 41 32 5 14 22 44 42 10 15 8 6 33 1 34 28 35 38 36
48 4 10 2 7 29 11 32 44 41 14 6 16 13 1 9 38 12 18 50 37 19 42 43 31 26 23 35 15 46 30 20 22 25 17 51 28 24 3 5 36 33 40 39 8 21 49 47 45 27 34 52
12 32 15 26 38 17 16 20 31 7 35 52 13 6 28 21 22 50 43 42 14 34 45 18 44 10 24 3 30 23 39 5 11 37 4 33 46 29 1 49 9 47 25 36 41 48 19 8 2 27 40 51
10 51 19 12 32 31 41 13 23 25 3 42 50 48 24 26 1 16 33 14 11 8 4 45 37 30 21 52 36 6 43 46 40 49 28 9 2 7 38 39 47 22 20 27 15 44 29 18 34 35 5 17
10 1 31 37 18 19 5 51 13 11 21 47 44 20 8 15 46 29 7 43 27 35 26 23 34 49 41 30 14 48 16 6 22 45 39 2 4 50 33 38 25 9 36 42 28 17 12 52 40 32 24 3
